15
2 0 6
2 1 7
3 0 8
3 1 6
3 2 2
4 2 24
4 3 4
5 0 7
6 0 1
6 1 16
6 3 22
7 0 21
7 2 7
7 5 20
8 0 18
8 3 2
8 4 12
8 5 29
8 6 4
8 7 11
9 2 13
9 4 18
9 5 14
9 6 15
9 7 16
9 8 3
10 1 26
10 2 20
10 4 3
10 5 27
10 6 14
11 1 14
11 2 17
11 3 2
11 5 21
11 6 26
11 9 26
11 10 29
12 3 21
12 5 17
12 6 6
12 8 29
12 9 15
12 10 22
13 1 16
13 2 25
13 3 15
13 5 6
13 6 10
13 8 2
13 10 22
13 11 22
14 1 12
14 2 6
14 4 14
14 6 29
14 9 22
14 10 23
14 12 14
